
Gurobi 6.5.2 (win64) logging started 07/24/16 17:26:23


Gurobi 6.5.2 (win64) logging started 07/24/16 17:26:23

Optimize a model with 1486 rows, 552 columns and 3958 nonzeros
Coefficient statistics:
  Matrix range    [6e-08, 4e+02]
  Objective range [1e+00, 1e+00]
  Bounds range    [1e+00, 1e+00]
  RHS range       [6e-06, 1e+03]
Presolve removed 1047 rows and 110 columns
Presolve time: 0.02s
Presolved: 439 rows, 442 columns, 2020 nonzeros
Variable types: 230 continuous, 212 integer (212 binary)

Root relaxation: objective 1.422777e+01, 927 iterations, 0.02 seconds

    Nodes    |    Current Node    |     Objective Bounds      |     Work
 Expl Unexpl |  Obj  Depth IntInf | Incumbent    BestBd   Gap | It/Node Time

     0     0   14.22777    0   84          -   14.22777      -     -    0s
     0     0   15.51400    0   53          -   15.51400      -     -    0s
H    0     0                      15.8391377   15.51400  2.05%     -    0s
H    0     0                      15.7902007   15.51400  1.75%     -    0s
     0     0   15.51488    0   56   15.79020   15.51488  1.74%     -    0s
     0     0   15.51488    0   49   15.79020   15.51488  1.74%     -    0s
     0     0   15.51488    0   50   15.79020   15.51488  1.74%     -    0s
     0     0   15.51488    0   50   15.79020   15.51488  1.74%     -    0s
     0     0   15.51488    0   44   15.79020   15.51488  1.74%     -    0s
     0     0   15.51488    0   50   15.79020   15.51488  1.74%     -    0s
     0     0   15.51488    0   52   15.79020   15.51488  1.74%     -    0s
     0     0   15.51629    0   53   15.79020   15.51629  1.73%     -    0s
     0     0   15.51629    0   53   15.79020   15.51629  1.73%     -    0s
     0     0   15.51629    0   48   15.79020   15.51629  1.73%     -    0s
H    0     0                      15.7448783   15.51629  1.45%     -    0s
     0     0   15.51629    0   47   15.74488   15.51629  1.45%     -    0s
     0     0   15.51629    0   52   15.74488   15.51629  1.45%     -    0s
     0     0   15.51629    0   49   15.74488   15.51629  1.45%     -    0s
H    0     0                      15.7275267   15.51629  1.34%     -    0s
H    0     0                      15.7202842   15.51629  1.30%     -    0s
     0     0   15.51629    0   48   15.72028   15.51629  1.30%     -    0s
     0     2   15.51629    0   48   15.72028   15.51629  1.30%     -    0s
*  128    64              20      15.7149281   15.54272  1.10%   8.4    0s
H  419   156                      15.7075598   15.58817  0.76%   6.7    0s
*  984   269              15      15.7000072   15.61444  0.55%   6.6    0s
* 1037   257              18      15.6970554   15.61444  0.53%   6.5    0s
H 1150   217                      15.6853071   15.61738  0.43%   6.5    0s

Cutting planes:
  MIR: 17

Explored 2206 nodes (15638 simplex iterations) in 0.37 seconds
Thread count was 8 (of 8 available processors)

Optimal solution found (tolerance 1.00e-04)
Best objective 1.568530714710e+01, best bound 1.568530714710e+01, gap 0.0%

Wrote requested result file 'H1\instance8\\Results8E_Sol6.lp'

